

******************************************************************************
This program contains Ipopt, a library for large-scale nonlinear optimization.
 Ipopt is released as open source code under the Eclipse Public License (EPL).
         For more information visit https://github.com/coin-or/Ipopt
******************************************************************************

This is Ipopt version 3.14.11, running with linear solver MUMPS 5.5.1.

Number of nonzeros in equality constraint Jacobian...:        0
Number of nonzeros in inequality constraint Jacobian.:        0
Number of nonzeros in Lagrangian Hessian.............:       10

Total number of variables............................:        5
                     variables with only lower bounds:        0
                variables with lower and upper bounds:        5
                     variables with only upper bounds:        0
Total number of equality constraints.................:        0
Total number of inequality constraints...............:        0
        inequality constraints with only lower bounds:        0
   inequality constraints with lower and upper bounds:        0
        inequality constraints with only upper bounds:        0

iter    objective    inf_pr   inf_du lg(mu)  ||d||  lg(rg) alpha_du alpha_pr  ls
   0  2.0000000e+00 0.00e+00 8.33e-11  -1.0 0.00e+00    -  0.00e+00 0.00e+00   0
   1  1.9999999e+00 0.00e+00 1.19e-06  -1.0 9.96e-02    -  1.00e+00 1.00e+00f  1
   2  1.9999994e+00 0.00e+00 1.59e-06  -2.5 6.76e-02    -  1.00e+00 1.00e+00f  1
   3  1.9999963e+00 0.00e+00 1.13e-05  -3.8 1.25e-01    -  1.00e+00 1.00e+00f  1
   4  1.9999605e+00 0.00e+00 1.48e-04  -5.7 2.46e-01    -  5.89e-01 1.00e+00f  1
   5  1.9999488e+00 0.00e+00 2.39e-04  -5.7 2.38e-02  -2.0 1.00e+00 1.00e+00f  1
   6  1.9997982e+00 0.00e+00 5.74e-04  -5.7 1.45e-01  -2.5 1.00e+00 1.00e+00f  1
   7  1.9995242e+00 0.00e+00 1.03e-03  -5.7 1.05e-01  -2.1 1.00e+00 1.00e+00f  1
   8  1.9992725e+00 0.00e+00 1.41e-03  -5.7 5.76e-02  -1.6 1.00e+00 1.00e+00f  1
   9  1.9890280e+00 0.00e+00 1.10e-02  -5.7 2.83e+01  -2.1 1.83e-02 1.71e-02f  1
iter    objective    inf_pr   inf_du lg(mu)  ||d||  lg(rg) alpha_du alpha_pr  ls
  10  1.9890419e+00 0.00e+00 4.09e-02  -5.7 2.30e-01  -0.8 1.00e+00 6.25e-02f  5
  11  1.9637988e+00 0.00e+00 2.57e-02  -5.7 3.83e-01  -1.3 1.00e+00 1.00e+00f  1
  12  1.9507086e+00 0.00e+00 3.23e-02  -5.7 2.65e-01  -0.8 1.00e+00 4.35e-01f  1
  13  1.9378049e+00 0.00e+00 3.84e-02  -5.7 9.52e-02  -0.4 1.00e+00 1.00e+00f  1
  14  1.8593859e+00 0.00e+00 7.03e-02  -5.7 5.88e-01  -0.9 1.00e+00 6.44e-01f  1
  15  1.8215152e+00 0.00e+00 7.96e-02  -5.7 2.25e-01  -0.4 1.00e+00 1.00e+00f  1
  16  1.5903068e+00 0.00e+00 2.46e-01  -5.7 1.90e+00  -0.9 1.00e+00 3.52e-01f  1
  17  1.5503876e+00 0.00e+00 2.42e-01  -5.7 6.52e-01  -0.5 1.00e+00 1.37e-01f  1
  18  1.2031641e+00 0.00e+00 4.71e-01  -5.7 2.72e+00  -1.0 1.00e+00 3.63e-01f  1
  19  1.0097488e+00 0.00e+00 9.06e-01  -5.7 5.59e+00  -1.5 1.00e+00 1.76e-01f  1
iter    objective    inf_pr   inf_du lg(mu)  ||d||  lg(rg) alpha_du alpha_pr  ls
  20  1.0097518e+00 0.00e+00 1.23e-02  -5.7 8.72e-02    -  1.00e+00 2.44e-04f 13
  21  1.0000077e+00 0.00e+00 1.71e-04  -5.7 1.69e-02    -  1.00e+00 9.80e-01f  1
  22  1.0000092e+00 0.00e+00 9.57e-13  -5.7 5.52e-06    -  1.00e+00 1.00e+00f  1
  23  9.9999996e-01 0.00e+00 2.04e-11  -8.6 9.21e-06    -  1.00e+00 1.00e+00f  1

Number of Iterations....: 23

                                   (scaled)                 (unscaled)
Objective...............:   9.9999996247860223e-01    9.9999996247860223e-01
Dual infeasibility......:   2.0366153208328797e-11    2.0366153208328797e-11
Constraint violation....:   0.0000000000000000e+00    0.0000000000000000e+00
Variable bound violation:   3.7521398432716069e-08    3.7521398432716069e-08
Complementarity.........:   2.5025095352941686e-09    2.5025095352941686e-09
Overall NLP error.......:   2.5025095352941686e-09    2.5025095352941686e-09


Number of objective function evaluations             = 48
Number of objective gradient evaluations             = 24
Number of equality constraint evaluations            = 0
Number of inequality constraint evaluations          = 0
Number of equality constraint Jacobian evaluations   = 0
Number of inequality constraint Jacobian evaluations = 0
Number of Lagrangian Hessian evaluations             = 23
Total seconds in IPOPT                               = 0.016

EXIT: Optimal Solution Found.
 
Ipopt 3.14.11: Optimal Solution Found
